c uprop, v00.0, 
c reading from data/prog20.c.cnf
c done reading: 0.002967
p cnf 167 762
-72 -93 0
-72 -89 0
72 89 93 0
-66 89 93 0
-66 -89 -93 0
66 89 -93 0
66 -89 93 0
72 -84 0
-82 -84 0
-72 82 84 0
-72 -77 82 0
72 -77 -82 0
72 77 82 0
-72 77 -82 0
-73 84 0
-70 -73 0
70 73 -84 0
-68 70 -84 0
-68 -70 84 0
68 70 84 0
68 -70 -84 0
-67 73 0
-64 -67 0
64 67 -73 0
64 -73 -91 0
-64 73 -91 0
64 73 91 0
-64 -73 91 0
67 -95 0
-86 -95 0
-67 86 95 0
-67 86 -96 0
67 -86 -96 0
67 86 96 0
-67 -86 96 0
95 -97 0
-79 -97 0
79 -95 97 0
79 -95 -98 0
-79 95 -98 0
79 95 98 0
-79 -95 98 0
97 -99 0
-75 -99 0
75 -97 99 0
75 -97 -100 0
-75 97 -100 0
75 97 100 0
-75 -97 100 0
70 -101 0
93 -101 0
-70 -93 101 0
-70 -93 -102 0
70 93 -102 0
-70 93 102 0
70 -93 102 0
-64 -89 103 0
-64 -101 103 0
-89 -101 103 0
64 89 -103 0
64 101 -103 0
89 101 -103 0
64 -103 -104 0
89 -103 -104 0
101 -103 -104 0
-64 103 104 0
-89 103 104 0
-101 103 104 0
-64 -89 -101 104 0
64 89 101 -104 0
-82 -86 105 0
-86 -103 105 0
-82 -103 105 0
82 86 -105 0
86 103 -105 0
82 103 -105 0
86 -105 -106 0
82 -105 -106 0
103 -105 -106 0
-86 105 106 0
-82 105 106 0
-103 105 106 0
-82 -86 -103 106 0
82 86 103 -106 0
-70 -79 107 0
-79 -105 107 0
-70 -105 107 0
70 79 -107 0
79 105 -107 0
70 105 -107 0
-62 79 -107 0
-62 70 -107 0
-62 105 -107 0
62 -79 107 0
62 -70 107 0
62 -105 107 0
62 -70 -79 -105 0
-62 70 79 105 0
61 -64 -75 0
61 -75 -107 0
61 -64 -107 0
-61 64 75 0
-61 75 107 0
-61 64 107 0
-60 -61 75 0
-60 -61 64 0
-60 -61 107 0
60 61 -75 0
60 61 -64 0
60 61 -107 0
60 -64 -75 -107 0
-60 64 75 107 0
-59 86 0
-59 61 0
59 -61 -86 0
-58 -61 -86 0
-58 61 86 0
58 61 -86 0
58 -61 86 0
-57 79 0
-57 59 0
57 -59 -79 0
-59 -79 -92 0
59 79 -92 0
59 -79 92 0
-59 79 92 0
75 -88 0
57 -88 0
-57 -75 88 0
-57 -75 -81 0
57 75 -81 0
57 -75 81 0
-57 75 81 0
-69 106 0
-69 93 0
69 -93 -106 0
-63 -93 -106 0
-63 93 106 0
63 93 -106 0
63 -93 106 0
-62 85 -89 0
-62 -69 85 0
-69 85 -89 0
62 -85 89 0
62 69 -85 0
69 -85 89 0
62 -78 -85 0
-78 -85 89 0
69 -78 -85 0
-62 78 85 0
78 85 -89 0
-69 78 85 0
-62 -69 78 -89 0
62 69 -78 89 0
-60 74 -82 0
-60 74 -85 0
74 -82 -85 0
60 -74 82 0
60 -74 85 0
-74 82 85 0
-56 60 -74 0
-56 -74 82 0
-56 -74 85 0
56 -60 74 0
56 74 -82 0
56 74 -85 0
56 -60 -82 -85 0
-56 60 82 85 0
55 -58 -70 0
55 -58 -74 0
55 -70 -74 0
-55 58 70 0
-55 58 74 0
-55 70 74 0
-54 -55 58 0
-54 -55 70 0
-54 -55 74 0
54 55 -58 0
54 55 -70 0
54 55 -74 0
54 -58 -70 -74 0
-54 58 70 74 0
53 -64 -92 0
53 -55 -92 0
53 -55 -64 0
-53 64 92 0
-53 55 92 0
-53 55 64 0
-52 -53 92 0
-52 -53 64 0
-52 -53 55 0
52 53 -92 0
52 53 -64 0
52 53 -55 0
52 -55 -64 -92 0
-52 55 64 92 0
51 -81 -86 0
51 -53 -81 0
51 -53 -86 0
-51 81 86 0
-51 53 81 0
-51 53 86 0
-50 -51 81 0
-50 -51 86 0
-50 -51 53 0
50 51 -81 0
50 51 -86 0
50 51 -53 0
50 -53 -81 -86 0
-50 53 81 86 0
49 -79 -88 0
49 -51 -88 0
49 -51 -79 0
-49 79 88 0
-49 51 88 0
-49 51 79 0
-48 -49 88 0
-48 -49 79 0
-48 -49 51 0
48 49 -88 0
48 49 -79 0
48 49 -51 0
48 -51 -79 -88 0
-48 51 79 88 0
-47 75 0
-47 49 0
47 -49 -75 0
-46 -49 -75 0
-46 49 75 0
46 49 -75 0
46 -49 75 0
-45 -93 0
-45 -89 0
45 89 93 0
-44 89 93 0
-44 -89 -93 0
44 89 -93 0
44 -89 93 0
-43 45 0
-43 -82 0
43 -45 82 0
-42 -45 82 0
-42 45 -82 0
42 45 82 0
42 -45 -82 0
-41 43 0
-41 -102 0
41 -43 102 0
-43 102 -108 0
43 -102 -108 0
43 102 108 0
-43 -102 108 0
41 -109 0
-104 -109 0
-41 104 109 0
-41 104 -110 0
41 -104 -110 0
41 104 110 0
-41 -104 110 0
109 -111 0
-63 -111 0
63 -109 111 0
63 -109 -112 0
-63 109 -112 0
63 109 112 0
-63 -109 112 0
111 -113 0
-78 -113 0
78 -111 113 0
78 -111 -114 0
-78 111 -114 0
78 111 114 0
-78 -111 114 0
113 -115 0
-56 -115 0
56 -113 115 0
56 -113 -116 0
-56 113 -116 0
56 113 116 0
-56 -113 116 0
115 -117 0
-54 -117 0
54 -115 117 0
54 -115 -118 0
-54 115 -118 0
54 115 118 0
-54 -115 118 0
117 -119 0
-52 -119 0
52 -117 119 0
52 -117 -120 0
-52 117 -120 0
52 117 120 0
-52 -117 120 0
119 -121 0
-50 -121 0
50 -119 121 0
50 -119 -122 0
-50 119 -122 0
50 119 122 0
-50 -119 122 0
121 -123 0
-48 -123 0
48 -121 123 0
48 -121 -124 0
-48 121 -124 0
48 121 124 0
-48 -121 124 0
123 -125 0
-46 -125 0
46 -123 125 0
46 -123 -126 0
-46 123 -126 0
46 123 126 0
-46 -123 126 0
125 -127 0
-47 -127 0
47 -125 127 0
47 -125 -128 0
-47 125 -128 0
47 125 128 0
-47 -125 128 0
-129 -131 0
-131 -132 0
129 131 132 0
129 132 -134 0
-129 -132 -134 0
-129 132 134 0
129 -132 134 0
131 -135 0
-135 -136 0
-131 135 136 0
-131 136 -138 0
131 -136 -138 0
131 136 138 0
-131 -136 138 0
135 -139 0
-139 -140 0
-135 139 140 0
-135 140 -142 0
135 -140 -142 0
135 140 142 0
-135 -140 142 0
139 -143 0
-143 -144 0
-139 143 144 0
-139 144 -146 0
139 -144 -146 0
139 144 146 0
-139 -144 146 0
143 -147 0
-147 -148 0
-143 147 148 0
-143 148 -150 0
143 -148 -150 0
143 148 150 0
-143 -148 150 0
147 -151 0
-151 -152 0
-147 151 152 0
-147 152 -154 0
147 -152 -154 0
147 152 154 0
-147 -152 154 0
151 -155 0
-155 -156 0
-151 155 156 0
-151 156 -158 0
151 -156 -158 0
151 156 158 0
-151 -156 158 0
132 -159 0
129 -159 0
-129 -132 159 0
-129 -132 -160 0
129 132 -160 0
129 -132 160 0
-129 132 160 0
-132 -136 161 0
-136 -159 161 0
-132 -159 161 0
132 136 -161 0
136 159 -161 0
132 159 -161 0
136 -161 -162 0
132 -161 -162 0
159 -161 -162 0
-136 161 162 0
-132 161 162 0
-159 161 162 0
-132 -136 -159 162 0
132 136 159 -162 0
-136 -140 163 0
-140 -161 163 0
-136 -161 163 0
136 140 -163 0
140 161 -163 0
136 161 -163 0
140 -163 -164 0
136 -163 -164 0
161 -163 -164 0
-140 163 164 0
-136 163 164 0
-161 163 164 0
-136 -140 -161 164 0
136 140 161 -164 0
-140 -144 165 0
-144 -163 165 0
-140 -163 165 0
140 144 -165 0
144 163 -165 0
140 163 -165 0
144 -165 -166 0
140 -165 -166 0
163 -165 -166 0
-144 165 166 0
-140 165 166 0
-163 165 166 0
-140 -144 -163 166 0
140 144 163 -166 0
-144 -148 167 0
-148 -165 167 0
-144 -165 167 0
144 148 -167 0
148 165 -167 0
144 165 -167 0
-94 148 -167 0
-94 144 -167 0
-94 165 -167 0
94 -148 167 0
94 -144 167 0
94 -165 167 0
94 -144 -148 -165 0
-94 144 148 165 0
90 -148 -152 0
90 -152 -167 0
90 -148 -167 0
-90 148 152 0
-90 152 167 0
-90 148 167 0
-83 -90 152 0
-83 -90 148 0
-83 -90 167 0
83 90 -152 0
83 90 -148 0
83 90 -167 0
83 -148 -152 -167 0
-83 148 152 167 0
71 -152 -156 0
71 -90 -156 0
71 -90 -152 0
-71 152 156 0
-71 90 156 0
-71 90 152 0
-65 -71 156 0
-65 -71 152 0
-65 -71 90 0
65 71 -156 0
65 71 -152 0
65 71 -90 0
65 -90 -152 -156 0
-65 90 152 156 0
-87 156 0
71 -87 0
-71 87 -156 0
-71 -80 -156 0
71 -80 156 0
71 80 -156 0
-71 80 156 0
-76 162 0
-76 129 0
76 -129 -162 0
-129 -130 -162 0
129 -130 162 0
129 130 -162 0
-129 130 162 0
-132 133 -164 0
-76 133 -164 0
-76 -132 133 0
132 -133 164 0
76 -133 164 0
76 132 -133 0
-133 -137 164 0
132 -133 -137 0
76 -133 -137 0
133 137 -164 0
-132 133 137 0
-76 133 137 0
-76 -132 137 -164 0
76 132 -137 164 0
-136 141 -166 0
-133 141 -166 0
-133 -136 141 0
136 -141 166 0
133 -141 166 0
133 136 -141 0
-141 -145 166 0
136 -141 -145 0
133 -141 -145 0
141 145 -166 0
-136 141 145 0
-133 141 145 0
-133 -136 145 -166 0
133 136 -145 166 0
-94 -140 149 0
-94 -141 149 0
-140 -141 149 0
94 140 -149 0
94 141 -149 0
140 141 -149 0
94 -149 -153 0
140 -149 -153 0
141 -149 -153 0
-94 149 153 0
-140 149 153 0
-141 149 153 0
-94 -140 -141 153 0
94 140 141 -153 0
-83 -144 157 0
-83 -149 157 0
-144 -149 157 0
83 144 -157 0
83 149 -157 0
144 149 -157 0
-40 83 -157 0
-40 144 -157 0
-40 149 -157 0
40 -83 157 0
40 -144 157 0
40 -149 157 0
40 -83 -144 -149 0
-40 83 144 149 0
39 -65 -148 0
39 -65 -157 0
39 -148 -157 0
-39 65 148 0
-39 65 157 0
-39 148 157 0
-38 -39 65 0
-38 -39 148 0
-38 -39 157 0
38 39 -65 0
38 39 -148 0
38 39 -157 0
38 -65 -148 -157 0
-38 65 148 157 0
37 -80 -152 0
37 -39 -80 0
37 -39 -152 0
-37 80 152 0
-37 39 80 0
-37 39 152 0
-36 -37 80 0
-36 -37 152 0
-36 -37 39 0
36 37 -80 0
36 37 -152 0
36 37 -39 0
36 -39 -80 -152 0
-36 39 80 152 0
35 -87 -156 0
35 -37 -87 0
35 -37 -156 0
-35 87 156 0
-35 37 87 0
-35 37 156 0
-34 -35 87 0
-34 -35 156 0
-34 -35 37 0
34 35 -87 0
34 35 -156 0
34 35 -37 0
34 -37 -87 -156 0
-34 37 87 156 0
-33 -129 0
-33 -160 0
33 129 160 0
-32 129 160 0
-32 -129 -160 0
32 -129 160 0
32 129 -160 0
-31 33 0
-31 -130 0
31 -33 130 0
-30 -33 130 0
-30 33 -130 0
30 33 130 0
30 -33 -130 0
-29 31 0
-29 -137 0
29 -31 137 0
-28 -31 137 0
-28 31 -137 0
28 31 137 0
28 -31 -137 0
-27 29 0
-27 -145 0
27 -29 145 0
-26 -29 145 0
-26 29 -145 0
26 29 145 0
26 -29 -145 0
-25 27 0
-25 -153 0
25 -27 153 0
-24 -27 153 0
-24 27 -153 0
24 27 153 0
24 -27 -153 0
-23 25 0
-23 -40 0
23 -25 40 0
-22 -25 40 0
-22 25 -40 0
22 25 40 0
22 -25 -40 0
-21 23 0
-21 -38 0
21 -23 38 0
-20 -23 38 0
-20 23 -38 0
20 23 38 0
20 -23 -38 0
-19 21 0
-19 -36 0
19 -21 36 0
-18 -21 36 0
-18 21 -36 0
18 21 36 0
18 -21 -36 0
-17 19 0
-17 -34 0
17 -19 34 0
-16 -19 34 0
-16 19 -34 0
16 19 34 0
16 -19 -34 0
-15 17 0
-15 -35 0
15 -17 35 0
-14 -17 35 0
-14 17 -35 0
14 17 35 0
14 -17 -35 0
-13 93 0
-13 129 0
13 -93 -129 0
-93 129 0
93 -129 0
12 -89 -160 0
12 -13 -89 0
12 -13 -160 0
-12 89 160 0
-12 13 89 0
-12 13 160 0
-12 89 0
-12 160 0
-12 13 0
13 89 160 0
11 -82 -130 0
11 -12 -82 0
11 -12 -130 0
-11 82 130 0
-11 12 82 0
-11 12 130 0
11 -82 0
11 -130 0
11 -12 0
-12 -82 -130 0
10 -102 -137 0
10 -11 -102 0
10 -11 -137 0
-10 102 137 0
-10 11 102 0
-10 11 137 0
-10 102 0
-10 137 0
-10 11 0
11 102 137 0
9 -104 -145 0
9 -10 -104 0
9 -10 -145 0
-9 104 145 0
-9 10 104 0
-9 10 145 0
-9 104 0
-9 145 0
-9 10 0
10 104 145 0
8 -63 -153 0
8 -9 -63 0
8 -9 -153 0
-8 63 153 0
-8 9 63 0
-8 9 153 0
-8 63 0
-8 153 0
-8 9 0
9 63 153 0
7 -40 -78 0
7 -8 -78 0
7 -8 -40 0
-7 40 78 0
-7 8 78 0
-7 8 40 0
7 -78 0
7 -40 0
7 -8 0
-8 -40 -78 0
6 -38 -56 0
6 -7 -56 0
6 -7 -38 0
-6 38 56 0
-6 7 56 0
-6 7 38 0
6 -56 0
6 -38 0
6 -7 0
-7 -38 -56 0
5 -36 -54 0
5 -6 -54 0
5 -6 -36 0
-5 36 54 0
-5 6 54 0
-5 6 36 0
5 -54 0
5 -36 0
5 -6 0
-6 -36 -54 0
4 -34 -52 0
4 -5 -52 0
4 -5 -34 0
-4 34 52 0
-4 5 52 0
-4 5 34 0
4 -52 0
4 -34 0
4 -5 0
-5 -34 -52 0
3 -35 -50 0
3 -4 -50 0
3 -4 -35 0
-3 35 50 0
-3 4 50 0
-3 4 35 0
3 -50 0
3 -35 0
3 -4 0
-4 -35 -50 0
-2 48 0
-2 3 0
2 -3 -48 0
3 -48 0
-3 48 0
-1 46 0
-1 2 0
1 -2 -46 0
2 -46 0
-2 46 0
-1 -47 0
1 -47 0
-1 47 0
